sat
(:elim-unconstrained  2
 :max-memory          18.62
 :memory              18.52
 :nlsat-arith-var     2
 :nlsat-atoms         6
 :nlsat-bool-var      1
 :nlsat-clauses       6
 :nlsat-propagations  6
 :nlsat-stages        3
 :num-allocs          96990
 :rlimit-count        26603
 :solve-eqs-elim-vars 1
 :solve-eqs-steps     1
 :time                0.02
 :total-time          0.03)
